
Starting CP-SAT solver v9.14.6206
Parameters: max_time_in_seconds: 600 log_search_progress: true num_search_workers: 8 relative_gap_limit: 0

Initial optimization model '': (model_fingerprint: 0x9c4f9489132f3180)
#Variables: 368 (#ints: 48 in objective) (320 primary variables)
  - 48 in [0,12410]
  - 320 in [1440,12410]
#kInterval: 160
#kLinMax: 48 (#expressions: 96)
#kLinear1: 16
#kLinear2: 144
#kNoOverlap: 10 (#intervals: 160)

Starting presolve at 0.00s
  1.09e-04s  0.00e+00d  [DetectDominanceRelations] 
  2.50e-03s  0.00e+00d  [operations_research::sat::CpModelPresolver::PresolveToFixPoint] #num_loops=10 #num_dual_strengthening=1 
  1.61e-05s  0.00e+00d  [operations_research::sat::CpModelPresolver::ExtractEncodingFromLinear] 
  3.89e-05s  0.00e+00d  [operations_research::sat::CpModelPresolver::DetectDuplicateColumns] 
  5.86e-04s  0.00e+00d  [operations_research::sat::CpModelPresolver::DetectDuplicateConstraints] 
[Symmetry] Graph for symmetry has 887 nodes and 858 arcs.
[Symmetry] Symmetry computation done. time: 0.0001113 dtime: 0.00013227
  8.87e-05s  0.00e+00d  [operations_research::sat::CpModelPresolver::DetectDuplicateConstraintsWithDifferentEnforcements] 
  9.15e-04s  1.87e-06d  [operations_research::sat::CpModelPresolver::Probe] 
  1.84e-05s  0.00e+00d  [MaxClique] 
  6.36e-05s  0.00e+00d  [DetectDominanceRelations] 
  4.08e-04s  0.00e+00d  [operations_research::sat::CpModelPresolver::PresolveToFixPoint] #num_loops=1 #num_dual_strengthening=1 
  4.90e-05s  0.00e+00d  [operations_research::sat::CpModelPresolver::ProcessAtMostOneAndLinear] 
  7.34e-05s  0.00e+00d  [operations_research::sat::CpModelPresolver::DetectDuplicateConstraints] 
  8.03e-05s  0.00e+00d  [operations_research::sat::CpModelPresolver::DetectDuplicateConstraintsWithDifferentEnforcements] 
  5.42e-05s  1.13e-06d  [operations_research::sat::CpModelPresolver::DetectDominatedLinearConstraints] #relevant_constraints=189 
  4.31e-05s  0.00e+00d  [operations_research::sat::CpModelPresolver::DetectDifferentVariables] 
  5.90e-06s  0.00e+00d  [operations_research::sat::CpModelPresolver::ProcessSetPPC] 
  7.50e-06s  0.00e+00d  [operations_research::sat::CpModelPresolver::FindAlmostIdenticalLinearConstraints] 
  1.28e-05s  0.00e+00d  [operations_research::sat::CpModelPresolver::FindBigAtMostOneAndLinearOverlap] 
  2.81e-05s  6.69e-06d  [operations_research::sat::CpModelPresolver::FindBigVerticalLinearOverlap] 
  5.70e-06s  0.00e+00d  [operations_research::sat::CpModelPresolver::FindBigHorizontalLinearOverlap] 
  8.60e-06s  0.00e+00d  [operations_research::sat::CpModelPresolver::MergeClauses] 
  6.48e-05s  0.00e+00d  [DetectDominanceRelations] 
  3.83e-04s  0.00e+00d  [operations_research::sat::CpModelPresolver::PresolveToFixPoint] #num_loops=1 #num_dual_strengthening=1 
  5.34e-05s  0.00e+00d  [DetectDominanceRelations] 
  3.54e-04s  0.00e+00d  [operations_research::sat::CpModelPresolver::PresolveToFixPoint] #num_loops=1 #num_dual_strengthening=1 
  1.86e-05s  0.00e+00d  [operations_research::sat::CpModelPresolver::DetectDuplicateColumns] 
  7.26e-05s  0.00e+00d  [operations_research::sat::CpModelPresolver::DetectDuplicateConstraints] 
[Symmetry] Graph for symmetry has 887 nodes and 858 arcs.
[Symmetry] Symmetry computation done. time: 6.71e-05 dtime: 0.00013227
  7.47e-05s  0.00e+00d  [operations_research::sat::CpModelPresolver::DetectDuplicateConstraintsWithDifferentEnforcements] 
  5.75e-04s  1.87e-06d  [operations_research::sat::CpModelPresolver::Probe] 
  4.20e-06s  0.00e+00d  [MaxClique] 
  5.53e-05s  0.00e+00d  [DetectDominanceRelations] 
  3.66e-04s  0.00e+00d  [operations_research::sat::CpModelPresolver::PresolveToFixPoint] #num_loops=1 #num_dual_strengthening=1 
  4.25e-05s  0.00e+00d  [operations_research::sat::CpModelPresolver::ProcessAtMostOneAndLinear] 
  7.14e-05s  0.00e+00d  [operations_research::sat::CpModelPresolver::DetectDuplicateConstraints] 
  7.05e-05s  0.00e+00d  [operations_research::sat::CpModelPresolver::DetectDuplicateConstraintsWithDifferentEnforcements] 
  3.64e-05s  1.13e-06d  [operations_research::sat::CpModelPresolver::DetectDominatedLinearConstraints] #relevant_constraints=189 
  3.60e-05s  0.00e+00d  [operations_research::sat::CpModelPresolver::DetectDifferentVariables] 
  2.80e-06s  0.00e+00d  [operations_research::sat::CpModelPresolver::ProcessSetPPC] 
  4.90e-06s  0.00e+00d  [operations_research::sat::CpModelPresolver::FindAlmostIdenticalLinearConstraints] 
  1.01e-05s  0.00e+00d  [operations_research::sat::CpModelPresolver::FindBigAtMostOneAndLinearOverlap] 
  2.58e-05s  6.69e-06d  [operations_research::sat::CpModelPresolver::FindBigVerticalLinearOverlap] 
  3.50e-06s  0.00e+00d  [operations_research::sat::CpModelPresolver::FindBigHorizontalLinearOverlap] 
  5.40e-06s  0.00e+00d  [operations_research::sat::CpModelPresolver::MergeClauses] 
  5.44e-05s  0.00e+00d  [DetectDominanceRelations] 
  3.56e-04s  0.00e+00d  [operations_research::sat::CpModelPresolver::PresolveToFixPoint] #num_loops=1 #num_dual_strengthening=1 
  1.54e-05s  0.00e+00d  [operations_research::sat::CpModelPresolver::ExpandObjective] 

Presolve summary:
  - 160 affine relations were detected.
  - rule 'TODO dual: only one blocking constraint?' was applied 288 times.
  - rule 'TODO dual: only one unspecified blocking constraint?' was applied 270 times.
  - rule 'affine: new relation' was applied 160 times.
  - rule 'lin_max: converted to equality' was applied 3 times.
  - rule 'lin_max: removed exprs' was applied 3 times.
  - rule 'lin_max: rewrite with precedences' was applied 45 times.
  - rule 'lin_max: target domain reduced' was applied 48 times.
  - rule 'linear: always true' was applied 64 times.
  - rule 'linear: fixed or dup variables' was applied 3 times.
  - rule 'linear: reduced variable domains' was applied 880 times.
  - rule 'linear: remapped using affine relations' was applied 336 times.
  - rule 'objective: variable not used elsewhere' was applied 3 times.
  - rule 'presolve: 3 unused variables removed.' was applied 1 time.
  - rule 'presolve: iteration' was applied 2 times.

Presolved optimization model '': (model_fingerprint: 0xe9674a9d1287c887)
#Variables: 205 (#ints: 45 in objective) (160 primary variables)
  - 145 different domains in [0,12389] with a largest complexity of 1.
#kInterval: 160
#kLinear2: 189
#kNoOverlap: 10 (#intervals: 160)
[Symmetry] Graph for symmetry has 724 nodes and 858 arcs.
[Symmetry] Symmetry computation done. time: 6.66e-05 dtime: 0.00012249

Preloading model.
#Bound   0.01s best:inf   next:[0,470298] initial_domain
#Model   0.01s var:205/205 constraints:359/359

Starting search at 0.01s with 8 workers.
6 full problem subsolvers: [core, default_lp, fixed, max_lp, no_lp, quick_restart]
2 first solution subsolvers: [fj, fs_random_no_lp]
13 interleaved subsolvers: [feasibility_pump, graph_arc_lns, graph_cst_lns, graph_dec_lns, graph_var_lns, ls, rins/rens, rnd_cst_lns, rnd_var_lns, scheduling_intervals_lns, scheduling_precedences_lns, scheduling_resource_windows_lns, scheduling_time_window_lns]
3 helper subsolvers: [neighborhood_helper, synchronization_agent, update_gap_integral]

#1       0.02s best:0     next:[]         core
#Done    0.02s core

Task timing                                  n [     min,      max]      avg      dev     time         n [     min,      max]      avg      dev    dtime
                             'core':         1 [  6.11ms,   6.11ms]   6.11ms   0.00ns   6.11ms         1 [260.97us, 260.97us] 260.97us   0.00ns 260.97us
                       'default_lp':         1 [  7.03ms,   7.03ms]   7.03ms   0.00ns   7.03ms         1 [136.82us, 136.82us] 136.82us   0.00ns 136.82us
                 'feasibility_pump':         1 [  2.13ms,   2.13ms]   2.13ms   0.00ns   2.13ms         0 [  0.00ns,   0.00ns]   0.00ns   0.00ns   0.00ns
                            'fixed':         1 [  6.81ms,   6.81ms]   6.81ms   0.00ns   6.81ms         1 [ 53.05us,  53.05us]  53.05us   0.00ns  53.05us
                               'fj':         1 [  2.08ms,   2.08ms]   2.08ms   0.00ns   2.08ms         1 [379.82us, 379.82us] 379.82us   0.00ns 379.82us
                  'fs_random_no_lp':         1 [  4.54ms,   4.54ms]   4.54ms   0.00ns   4.54ms         1 [139.95us, 139.95us] 139.95us   0.00ns 139.95us
                    'graph_arc_lns':         0 [  0.00ns,   0.00ns]   0.00ns   0.00ns   0.00ns         0 [  0.00ns,   0.00ns]   0.00ns   0.00ns   0.00ns
                    'graph_cst_lns':         0 [  0.00ns,   0.00ns]   0.00ns   0.00ns   0.00ns         0 [  0.00ns,   0.00ns]   0.00ns   0.00ns   0.00ns
                    'graph_dec_lns':         0 [  0.00ns,   0.00ns]   0.00ns   0.00ns   0.00ns         0 [  0.00ns,   0.00ns]   0.00ns   0.00ns   0.00ns
                    'graph_var_lns':         0 [  0.00ns,   0.00ns]   0.00ns   0.00ns   0.00ns         0 [  0.00ns,   0.00ns]   0.00ns   0.00ns   0.00ns
                               'ls':         0 [  0.00ns,   0.00ns]   0.00ns   0.00ns   0.00ns         0 [  0.00ns,   0.00ns]   0.00ns   0.00ns   0.00ns
                           'max_lp':         1 [  5.75ms,   5.75ms]   5.75ms   0.00ns   5.75ms         0 [  0.00ns,   0.00ns]   0.00ns   0.00ns   0.00ns
                            'no_lp':         1 [  6.13ms,   6.13ms]   6.13ms   0.00ns   6.13ms         1 [274.02us, 274.02us] 274.02us   0.00ns 274.02us
                    'quick_restart':         1 [  5.43ms,   5.43ms]   5.43ms   0.00ns   5.43ms         1 [ 67.61us,  67.61us]  67.61us   0.00ns  67.61us
                        'rins/rens':         0 [  0.00ns,   0.00ns]   0.00ns   0.00ns   0.00ns         0 [  0.00ns,   0.00ns]   0.00ns   0.00ns   0.00ns
                      'rnd_cst_lns':         0 [  0.00ns,   0.00ns]   0.00ns   0.00ns   0.00ns         0 [  0.00ns,   0.00ns]   0.00ns   0.00ns   0.00ns
                      'rnd_var_lns':         0 [  0.00ns,   0.00ns]   0.00ns   0.00ns   0.00ns         0 [  0.00ns,   0.00ns]   0.00ns   0.00ns   0.00ns
         'scheduling_intervals_lns':         0 [  0.00ns,   0.00ns]   0.00ns   0.00ns   0.00ns         0 [  0.00ns,   0.00ns]   0.00ns   0.00ns   0.00ns
       'scheduling_precedences_lns':         0 [  0.00ns,   0.00ns]   0.00ns   0.00ns   0.00ns         0 [  0.00ns,   0.00ns]   0.00ns   0.00ns   0.00ns
  'scheduling_resource_windows_lns':         0 [  0.00ns,   0.00ns]   0.00ns   0.00ns   0.00ns         0 [  0.00ns,   0.00ns]   0.00ns   0.00ns   0.00ns
       'scheduling_time_window_lns':         0 [  0.00ns,   0.00ns]   0.00ns   0.00ns   0.00ns         0 [  0.00ns,   0.00ns]   0.00ns   0.00ns   0.00ns

Search stats          Bools  Conflicts  Branches  Restarts  BoolPropag  IntegerPropag
             'core':    189          0       217         2          17          1'482
       'default_lp':      9          0         9         0           0            397
            'fixed':      1          0         1         0           0            107
  'fs_random_no_lp':     22          0        22         0           0          1'097
           'max_lp':      0          0         0         0           0              0
            'no_lp':     76          0        76         0           0          2'019
    'quick_restart':      1          0         1         0           0            107

SAT stats             ClassicMinim  LitRemoved  LitLearned  LitForgotten  Subsumed  MClauses  MDecisions  MLitTrue  MSubsumed  MLitRemoved  MReused
             'core':             0           0           0             0         0         0           0         0          0            0        0
       'default_lp':             0           0           0             0         0         0           0         0          0            0        0
            'fixed':             0           0           0             0         0         0           0         0          0            0        0
  'fs_random_no_lp':             0           0           0             0         0         0           0         0          0            0        0
           'max_lp':             0           0           0             0         0         0           0         0          0            0        0
            'no_lp':             0           0           0             0         0         0           0         0          0            0        0
    'quick_restart':             0           0           0             0         0         0           0         0          0            0        0

Lp stats            Component  Iterations  AddedCuts  OPTIMAL  DUAL_F.  DUAL_U.
     'default_lp':         16          98          0      175        1        0
          'fixed':         16          68          0      119        0        0
         'max_lp':          1         133         20        1        0        0
  'quick_restart':         16          77          0      140        0        0

Lp dimension        Final dimension of first component
     'default_lp':       1 rows, 12 columns, 2 entries
          'fixed':       1 rows, 12 columns, 2 entries
         'max_lp':  203 rows, 205 columns, 435 entries
  'quick_restart':       1 rows, 12 columns, 2 entries

Lp debug            CutPropag  CutEqPropag  Adjust  Overflow  Bad  BadScaling
     'default_lp':          0            0       0         0    0           0
          'fixed':          0            0       0         0    0           0
         'max_lp':          0            0       0         0    0           0
  'quick_restart':          0            0       0         0    0           0

Lp pool             Constraints  Updates  Simplif  Merged  Shortened  Split  Strenghtened  Cuts/Call
     'default_lp':          189        0        0       0          0      0             0        0/0
          'fixed':          189        0        0       0          0      0             0        0/0
         'max_lp':          209        0        0       0          0      0             0      20/26
  'quick_restart':          189        0        0       0          0      0             0        0/0

Lp Cut                                                max_lp
                  NoOverlapCompletionTimeExhaustive:       1
  NoOverlapCompletionTimeExhaustive_lifted_weighted:       4
         NoOverlapCompletionTimeExhaustive_weighted:       1
                    NoOverlapCompletionTimeQueyrane:       2
             NoOverlapCompletionTimeQueyrane_lifted:       4
                        NoOverlapDisjunctionOnStart:       8

LNS stats                             Improv/Calls  Closed  Difficulty  TimeLimit
                    'graph_arc_lns':           0/0      0%    5.00e-01       0.10
                    'graph_cst_lns':           0/0      0%    5.00e-01       0.10
                    'graph_dec_lns':           0/0      0%    5.00e-01       0.10
                    'graph_var_lns':           0/0      0%    5.00e-01       0.10
                        'rins/rens':           0/0      0%    5.00e-01       0.10
                      'rnd_cst_lns':           0/0      0%    5.00e-01       0.10
                      'rnd_var_lns':           0/0      0%    5.00e-01       0.10
         'scheduling_intervals_lns':           0/0      0%    5.00e-01       0.10
       'scheduling_precedences_lns':           0/0      0%    5.00e-01       0.10
  'scheduling_resource_windows_lns':           0/0      0%    5.00e-01       0.10
       'scheduling_time_window_lns':           0/0      0%    5.00e-01       0.10

LS stats         Batches  Restarts/Perturbs  LinMoves  GenMoves  CompoundMoves  Bactracks  WeightUpdates  ScoreComputed
  'fj_restart':        1                  1        29        10              0          0              0          1'380

Solutions (1)    Num   Rank
        'core':    1  [1,1]

Objective bounds     Num
  'initial_domain':    1

Solution repositories    Added  Queried  Synchro
  'feasible solutions':      1        0        1
   'fj solution hints':      0        0        0
        'lp solutions':      0        0        0
                'pump':      0        0

CpSolverResponse summary:
status: OPTIMAL
objective: 0
best_bound: 0
integers: 206
booleans: 189
conflicts: 0
branches: 217
propagations: 17
integer_propagations: 1482
restarts: 2
lp_iterations: 0
walltime: 0.0324917
usertime: 0.0324917
deterministic_time: 0.00133163
gap_integral: 0.00523645
solution_fingerprint: 0xf07b67f3314bfa34

